31 1 1
34 2 1
32 3 1
35 4 1
33 5 1
36 6 1
31 7 1
34 8 1
32 9 1
35 10 1
33 11 1
36 12 1
31 13 1
34 14 1
32 15 1
35 16 1
33 17 1
36 18 1
28 20 1
29 21 1
30 22 1
28 23 1
29 24 1
30 25 1
28 26 1
29 27 1
30 28 1
